<number of tasks>
50

<cycle time>
1000

<order strength>
0.197


<task times>
1 610
2 460
3 361
4 380
5 625
6 526
7 628
8 558
9 529
10 475
11 688
12 461
13 473
14 598
15 735
16 541
17 564
18 523
19 461
20 733
21 608
22 443
23 528
24 487
25 592
26 641
27 498
28 364
29 427
30 636
31 514
32 542
33 485
34 440
35 513
36 341
37 429
38 525
39 537
40 516
41 455
42 637
43 614
44 612
45 551
46 490
47 672
48 461
49 547
50 359

<precedence relations>
1,34
2,9
3,10
3,11
4,13
6,8
6,12
7,14
7,15
8,34
9,20
10,17
11,19
12,18
13,21
14,16
14,22
16,34
17,24
18,25
19,23
20,28
21,27
22,26
23,34
24,30
25,29
27,31
27,44
28,32
28,33
29,34
30,36
30,37
31,38
33,35
34,39
34,40
34,41
34,42
34,44
35,43
36,45
37,46
41,50
43,47
44,48
45,49

<end>
